1,76,29,61,16,30,32,120,28,92,15,59,78,45,94,81,86,14,87,74,105,60,24,111,96,90,54,8,116,70,34,26,4,40,72,56,7,38,119,103,47,71,55,89,48,102,110,112,6,84,36,104,35,10,99,106,101,3,82,9,23,11,51,2,115,93,53,80,27,114,73,57,67,37,62,5,63,77,64,109,21,88,1